data;


param d:= 100;
param r:=5;
param p:=0.100000;
param M:=1000;
param U:=
         1         1        9.096152e-01
         2         1        9.767119e-01
         3         1        8.391436e-01
         4         1       -1.602293e+00
         5         1        4.418308e-01
         6         1       -1.085377e+00
         7         1        8.931051e-01
         8         1        9.457665e-01
         9         1        1.014266e+00
        10         1        1.817737e+00
        11         1       -1.426770e+00
        12         1        3.869795e-01
        13         1        1.578075e+00
        14         1        3.184176e-02
        15         1        2.729988e-02
        16         1       -7.011426e-01
        17         1        1.109199e+00
        18         1        2.658603e-01
        19         1        1.211797e+00
        20         1       -1.032333e+00
        21         1       -8.308010e-01
        22         1        4.212642e-02
        23         1        1.937496e-01
        24         1       -9.487964e-01
        25         1        3.695749e-01
        26         1       -2.781559e-01
        27         1        1.271853e+00
        28         1        5.536322e-02
        29         1        2.632456e-01
        30         1       -8.949125e-01
        31         1       -1.675015e+00
        32         1       -2.324601e+00
        33         1        2.009216e+00
        34         1        5.954903e-01
        35         1        1.485751e+00
        36         1       -1.467977e-01
        37         1       -1.561794e+00
        38         1       -1.138020e+00
        39         1       -1.181884e+00
        40         1       -2.404419e+00
        41         1        6.854455e-01
        42         1       -9.514877e-01
        43         1        2.970664e-01
        44         1        1.450504e-01
        45         1       -6.676534e-01
        46         1        1.268999e+00
        47         1        3.114722e-01
        48         1       -1.531091e+00
        49         1       -8.728337e-02
        50         1        2.965666e-01
        51         1       -5.019615e-01
        52         1        3.348380e-01
        53         1        1.273243e+00
        54         1        4.436068e-01
        55         1        1.103516e+00
        56         1        1.921276e+00
        57         1        1.663042e+00
        58         1        3.513240e-01
        59         1        1.630576e+00
        60         1       -1.536232e+00
        61         1        3.928916e-02
        62         1        6.306676e-01
        63         1        3.404040e-01
        64         1       -2.718018e-01
        65         1       -2.106735e+00
        66         1        3.651191e-02
        67         1       -1.249819e+00
        68         1       -6.183848e-01
        69         1        8.311901e-01
        70         1       -8.500232e-01
        71         1        8.430752e-01
        72         1       -7.682424e-01
        73         1        1.946417e+00
        74         1        1.047851e+00
        75         1       -1.114300e+00
        76         1        7.408622e-01
        77         1        2.269629e+00
        78         1       -2.648848e+00
        79         1       -4.872276e-01
        80         1       -1.280445e+00
        81         1        3.378666e-01
        82         1        8.791572e-01
        83         1        1.953047e-01
        84         1        7.408374e-03
        85         1        3.318942e-01
        86         1       -1.063929e+00
        87         1       -1.011926e+00
        88         1        7.764535e-01
        89         1       -5.400846e-01
        90         1        1.508179e+00
        91         1        1.014713e+00
        92         1       -9.592694e-01
        93         1        3.704930e-01
        94         1        7.260592e-01
        95         1        1.943861e-01
        96         1       -5.885526e-01
        97         1        1.040025e+00
        98         1        3.108626e+00
        99         1        7.070054e-02
       100         1        5.216620e-01
         1         2        1.617040e+00
         2         2       -4.567565e-01
         3         2       -8.501008e-01
         4         2        1.567139e-01
         5         2       -2.171119e+00
         6         2       -8.498668e-01
         7         2       -9.046541e-01
         8         2        1.017839e+00
         9         2       -5.129362e-01
        10         2       -9.029009e-01
        11         2       -5.129665e-01
        12         2       -5.560081e-01
        13         2        1.228437e+00
        14         2       -3.597560e-01
        15         2       -9.786802e-01
        16         2        7.234895e-01
        17         2        3.996226e-01
        18         2        7.671803e-01
        19         2       -5.994648e-01
        20         2       -1.366175e+00
        21         2        2.732411e-01
        22         2       -5.492978e-02
        23         2       -5.262555e-02
        24         2       -4.726114e-01
        25         2        3.545433e-01
        26         2        9.402868e-02
        27         2       -1.825190e-01
        28         2       -3.584980e-01
        29         2       -2.429610e+00
        30         2        1.228727e+00
        31         2        7.613403e-01
        32         2       -5.903079e-02
        33         2        2.312537e+00
        34         2        1.219390e+00
        35         2       -5.341825e-01
        36         2       -1.590654e+00
        37         2       -1.078684e+00
        38         2       -1.153946e+00
        39         2        5.248070e-01
        40         2        8.318879e-02
        41         2        1.468343e+00
        42         2       -1.191202e+00
        43         2        2.998832e-01
        44         2        2.033936e-01
        45         2       -4.084115e-01
        46         2       -1.253703e+00
        47         2        1.034947e+00
        48         2        2.030131e+00
        49         2        8.843776e-01
        50         2        6.711475e-01
        51         2       -1.208417e+00
        52         2        6.093498e-01
        53         2        1.500542e+00
        54         2        8.759701e-01
        55         2        1.493577e-01
        56         2       -2.884780e-01
        57         2        5.845324e-01
        58         2       -1.015766e+00
        59         2       -1.392161e+00
        60         2       -1.693122e+00
        61         2       -2.952695e-01
        62         2       -8.444948e-01
        63         2        1.202736e+00
        64         2       -1.689050e-01
        65         2        8.321082e-01
        66         2       -2.229625e+00
        67         2       -6.264721e-01
        68         2       -9.554526e-01
        69         2        8.016044e-01
        70         2        4.934723e-01
        71         2        2.889032e+00
        72         2        1.984641e+00
        73         2        1.473247e+00
        74         2       -4.114544e-01
        75         2       -2.713456e+00
        76         2        5.896759e-01
        77         2       -6.629809e-02
        78         2       -2.851496e-01
        79         2        1.693482e+00
        80         2       -3.052876e+00
        81         2       -5.028571e-01
        82         2       -2.073114e+00
        83         2       -1.273087e+00
        84         2        4.067532e-01
        85         2        1.001652e+00
        86         2       -2.981228e-01
        87         2       -8.346949e-01
        88         2        1.649327e+00
        89         2        4.664923e-01
        90         2        9.305305e-01
        91         2        1.109987e+00
        92         2        1.340944e+00
        93         2        2.572933e+00
        94         2        7.523306e-01
        95         2        7.079759e-01
        96         2        3.691319e-01
        97         2        5.967511e-01
        98         2       -1.999684e-02
        99         2        8.595398e-03
       100         2        2.447594e-01
         1         3       -2.275652e+00
         2         3        1.209680e+00
         3         3        6.999899e-01
         4         3        3.135974e-01
         5         3        8.220687e-01
         6         3       -5.458835e-01
         7         3       -9.668103e-01
         8         3        6.027058e-01
         9         3        1.153814e+00
        10         3        5.756797e-01
        11         3       -2.976792e-01
        12         3       -1.526062e+00
        13         3        9.228652e-01
        14         3        5.889806e-01
        15         3        1.363503e+00
        16         3        5.294481e-01
        17         3       -3.809108e-01
        18         3        4.791041e-01
        19         3        2.309805e-01
        20         3       -1.422220e+00
        21         3       -3.939096e-01
        22         3       -6.285076e-01
        23         3       -5.117806e-01
        24         3       -2.705773e-01
        25         3       -9.341090e-01
        26         3        2.448079e-01
        27         3        3.308891e-01
        28         3       -4.225154e-01
        29         3       -4.122929e-01
        30         3        1.862154e+00
        31         3        1.406475e+00
        32         3       -1.081343e+00
        33         3        6.063637e-01
        34         3       -4.775909e-01
        35         3       -3.794182e-01
        36         3       -7.490700e-01
        37         3       -1.485086e+00
        38         3        1.190508e+00
        39         3       -1.930314e+00
        40         3       -1.229132e-01
        41         3        2.257568e-01
        42         3       -1.658611e+00
        43         3        8.443584e-01
        44         3        1.953463e-01
        45         3       -1.812041e-01
        46         3       -5.151829e-01
        47         3       -2.957835e-01
        48         3        6.438447e-01
        49         3       -1.882541e+00
        50         3        4.614088e-01
        51         3       -1.432016e+00
        52         3       -1.069764e-01
        53         3        1.114063e+00
        54         3        1.038258e+00
        55         3       -8.908594e-01
        56         3        3.069216e-01
        57         3       -1.278140e+00
        58         3       -7.095120e-02
        59         3        1.271254e+00
        60         3       -1.863602e+00
        61         3        1.742953e+00
        62         3        7.267157e-01
        63         3       -1.327284e+00
        64         3        1.780034e+00
        65         3        6.498702e-01
        66         3        9.024283e-01
        67         3        3.036426e-01
        68         3       -4.415391e-02
        69         3        1.163963e+00
        70         3       -1.146806e+00
        71         3       -1.707554e+00
        72         3       -1.974895e-01
        73         3       -4.587480e-02
        74         3       -1.001039e+00
        75         3        2.268807e-01
        76         3        6.985127e-01
        77         3        9.654404e-01
        78         3        1.314093e+00
        79         3       -1.656611e-01
        80         3       -4.664640e-01
        81         3       -1.408364e-01
        82         3       -4.144934e-01
        83         3       -8.529145e-02
        84         3        1.018042e+00
        85         3       -8.855602e-02
        86         3       -2.691263e-03
        87         3       -1.424003e+00
        88         3       -9.199650e-01
        89         3        1.958190e+00
        90         3       -4.526947e-01
        91         3       -2.246750e+00
        92         3       -2.447829e-01
        93         3       -1.223346e+00
        94         3       -7.366578e-01
        95         3        4.561289e-01
        96         3        1.403174e+00
        97         3        1.184403e+00
        98         3       -1.698061e+00
        99         3        1.755612e+00
       100         3       -1.661922e+00
         1         4        1.720752e+00
         2         4       -8.914574e-01
         3         4       -2.526404e-01
         4         4        2.686968e+00
         5         4        6.237184e-01
         6         4        1.877534e+00
         7         4        2.695865e-01
         8         4        2.445882e+00
         9         4        2.451299e-01
        10         4       -3.413693e-01
        11         4       -2.134597e+00
        12         4        1.331809e+00
        13         4        5.002796e-01
        14         4       -2.479635e-01
        15         4        1.701571e+00
        16         4        1.724531e+00
        17         4       -9.903949e-01
        18         4       -2.958281e-01
        19         4       -1.309750e+00
        20         4        9.467730e-01
        21         4       -2.738369e-01
        22         4        3.500044e-01
        23         4       -4.509983e-01
        24         4        9.301593e-01
        25         4        2.446724e-01
        26         4        3.798444e-01
        27         4        1.324302e+00
        28         4       -1.603464e-01
        29         4       -2.266282e+00
        30         4        9.304686e-01
        31         4        4.687924e-01
        32         4        5.192888e-01
        33         4        5.364229e-01
        34         4        8.274017e-01
        35         4        1.219568e+00
        36         4        1.078508e-01
        37         4       -6.891808e-01
        38         4        1.286971e+00
        39         4       -4.381406e-01
        40         4       -9.035902e-01
        41         4        8.932769e-01
        42         4        9.892634e-01
        43         4       -4.937524e-01
        44         4        1.108513e+00
        45         4        3.139774e-01
        46         4        1.898434e+00
        47         4        9.948217e-03
        48         4       -2.416654e-02
        49         4        7.498790e-02
        50         4        2.216566e+00
        51         4       -4.798588e-01
        52         4       -2.329955e-01
        53         4        3.236645e-01
        54         4        4.963117e-01
        55         4       -1.092802e+00
        56         4       -5.286085e-01
        57         4       -1.613781e+00
        58         4       -7.880209e-01
        59         4       -1.532754e-01
        60         4       -5.656935e-01
        61         4       -2.195011e+00
        62         4       -2.389206e-01
        63         4       -1.173558e+00
        64         4       -1.024387e+00
        65         4        2.431187e-02
        66         4       -2.247835e-01
        67         4       -1.029087e-01
        68         4        1.565131e-01
        69         4        1.728164e-01
        70         4       -5.811448e-01
        71         4        1.085115e+00
        72         4        1.999638e+00
        73         4       -1.296370e+00
        74         4       -1.222746e+00
        75         4       -1.855641e-01
        76         4       -2.157301e+00
        77         4       -5.694384e-01
        78         4       -2.275060e+00
        79         4       -9.337422e-01
        80         4       -1.312402e+00
        81         4        2.659960e-01
        82         4       -3.828042e-01
        83         4        3.447962e-01
        84         4        7.969346e-01
        85         4        9.318177e-01
        86         4       -1.180451e+00
        87         4        1.175149e+00
        88         4       -2.344393e-01
        89         4        1.300239e+00
        90         4        1.085155e+00
        91         4       -4.522460e-01
        92         4        1.831541e+00
        93         4        1.152325e+00
        94         4        2.888109e-01
        95         4       -4.262655e-01
        96         4        3.200421e-01
        97         4        1.642427e+00
        98         4       -7.893385e-01
        99         4       -9.250240e-01
       100         4        3.488610e-01
         1         5        4.417402e-01
         2         5        7.943372e-01
         3         5        5.673442e-01
         4         5       -1.019898e+00
         5         5        2.163187e+00
         6         5        7.386482e-01
         7         5        3.988989e-01
         8         5        5.213691e-01
         9         5        5.599740e-01
        10         5        8.632127e-01
        11         5        5.988099e-01
        12         5       -4.530620e-01
        13         5       -8.108051e-01
        14         5       -1.501505e+00
        15         5       -9.889461e-01
        16         5       -7.142530e-01
        17         5        1.580531e+00
        18         5        9.517408e-01
        19         5        6.713331e-01
        20         5        1.358831e+00
        21         5        8.748059e-01
        22         5       -4.060540e-01
        23         5       -1.133271e+00
        24         5        6.302138e-01
        25         5        1.601822e+00
        26         5       -1.671248e+00
        27         5       -1.020968e+00
        28         5       -1.723716e+00
        29         5       -8.468283e-01
        30         5       -1.101866e+00
        31         5        1.669950e+00
        32         5       -7.100867e-01
        33         5       -9.706789e-01
        34         5        6.892436e-01
        35         5        1.143334e+00
        36         5       -1.261276e+00
        37         5       -7.318567e-01
        38         5       -6.565297e-01
        39         5       -4.031786e-01
        40         5       -1.132877e-01
        41         5       -2.001637e-01
        42         5       -8.656001e-02
        43         5        2.066081e-01
        44         5        7.166547e-02
        45         5        1.299188e-02
        46         5        7.763941e-01
        47         5       -5.462432e-01
        48         5        2.074726e-01
        49         5        7.913177e-02
        50         5       -1.864234e+00
        51         5        3.018905e-01
        52         5       -6.351988e-01
        53         5        1.597220e-01
        54         5       -5.172267e-01
        55         5        1.058258e+00
        56         5       -9.273313e-01
        57         5       -1.012294e+00
        58         5       -6.042568e-01
        59         5       -4.334607e-01
        60         5        5.454547e-01
        61         5       -2.670242e-01
        62         5       -1.905569e+00
        63         5        1.185683e+00
        64         5       -3.536699e-01
        65         5        1.026105e-02
        66         5       -5.053834e-01
        67         5        3.915180e-01
        68         5       -2.757826e-01
        69         5       -7.393008e-01
        70         5       -5.363900e-01
        71         5        2.409085e+00
        72         5       -1.000362e-01
        73         5       -4.333930e-01
        74         5       -6.305257e-01
        75         5        4.285810e-01
        76         5       -3.314637e-01
        77         5        6.093920e-01
        78         5        2.988216e-01
        79         5       -1.709456e-01
        80         5       -9.192047e-01
        81         5        8.622966e-01
        82         5        7.372496e-01
        83         5       -2.949191e-01
        84         5       -1.148383e+00
        85         5        1.727517e+00
        86         5        1.318249e+00
        87         5        1.073778e+00
        88         5       -1.141231e-01
        89         5        1.337322e+00
        90         5        1.204515e+00
        91         5        2.552287e-01
        92         5        2.581483e-02
        93         5       -5.359683e-01
        94         5       -4.993813e-01
        95         5       -1.331717e+00
        96         5        1.748079e+00
        97         5        7.778822e-01
        98         5        3.183776e-01
        99         5       -1.713813e+00
       100         5        1.241957e+00
;

param theta:=
    1       -1.491777e-01
    2        3.405242e-01
    3        1.106806e+00
    4        7.516048e-01
    5        1.497777e+00
;
param X_true:=
    1       -1.488045e-01
    2        1.557357e+00
    3        1.019961e+00
    4        1.131442e+00
    5        3.813401e+00
    6        1.785821e+00
    7       -7.112753e-01
    8        3.491821e+00
    9        1.974032e+00
   10        1.094865e+00
   11       -9.987978e-01
   12       -1.613708e+00
   13        3.659393e-01
   14       -1.910657e+00
   15        9.694846e-01
   16        1.163331e+00
   17        1.171916e+00
   18        1.955007e+00
   19       -1.081619e-01
   20        8.614878e-01
   21        8.854473e-01
   22       -1.065738e+00
   23       -2.649624e+00
   24        1.324159e+00
   25        1.614789e+00
   26       -1.873195e+00
   27       -4.194846e-01
   28       -3.300238e+00
   29       -4.294648e+00
   30        1.661951e+00
   31        4.919382e+00
   32       -1.543411e+00
   33        1.081891e-01
   34        1.452009e+00
   35        1.805606e+00
   36       -3.156881e+00
   37       -3.392184e+00
   38        1.078440e+00
   39       -2.714643e+00
   40       -5.978498e-01
   41        1.019213e+00
   42       -1.485565e+00
   43        9.306888e-01
   44        1.204335e+00
   45        1.541309e-02
   46        1.403307e+00
   47       -8.320883e-01
   48        1.924908e+00
   49       -1.594552e+00
   50       -4.312331e-01
   51       -1.830077e+00
   52       -1.087360e+00
   53        2.036578e+00
   54        9.796025e-01
   55       -3.360890e-01
   56       -1.831382e+00
   57       -4.192810e+00
   58       -1.974154e+00
   59       -7.470871e-02
   60       -2.018231e+00
   61       -2.270204e-01
   62       -2.611010e+00
   63       -2.164290e-01
   64        6.535305e-01
   65        1.350553e+00
   66       -6.917747e-01
   67        8.182495e-01
   68       -5.774000e-01
   69        4.598337e-01
   70       -2.214632e+00
   71        3.391936e+00
   72        1.924946e+00
   73       -1.462944e+00
   74       -3.267790e+00
   75       -4.207857e-03
   76       -1.254500e+00
   77        1.192141e+00
   78        4.901162e-01
   79       -4.918429e-01
   80       -3.728020e+00
   81        1.113936e+00
   82       -4.793423e-01
   83       -7.396254e-01
   84        1.431386e-01
   85        3.481354e+00
   86        1.141427e+00
   87        7.821561e-01
   88       -9.195531e-01
   89        5.387032e+00
   90        2.210538e+00
   91       -2.217746e+00
   92        1.744058e+00
   93       -4.697969e-01
   94       -1.198352e+00
   95       -1.598067e+00
   96        4.625315e+00
   97        3.758514e+00
   98       -2.466383e+00
   99       -1.326660e+00
  100        2.884797e-01
;
param X:=
    1        1.677123e+00
    2        1.557357e+00
    3        1.019961e+00
    4        1.131442e+00
    5        3.813401e+00
    6        1.785821e+00
    7       -7.112753e-01
    8        3.491821e+00
    9        1.974032e+00
   10        1.094865e+00
   11       -9.987978e-01
   12       -1.613708e+00
   13        3.659393e-01
   14       -1.910657e+00
   15       -7.962249e-02
   16        1.163331e+00
   17        1.171916e+00
   18        1.955007e+00
   19       -1.081619e-01
   20        8.614878e-01
   21        8.854473e-01
   22       -1.065738e+00
   23       -2.649624e+00
   24        9.187913e-01
   25        1.614789e+00
   26       -1.873195e+00
   27       -4.194846e-01
   28       -3.300238e+00
   29       -4.294648e+00
   30        2.388104e-01
   31        4.919382e+00
   32       -1.543411e+00
   33        1.081891e-01
   34       -4.419002e-01
   35        1.805606e+00
   36       -1.811582e+00
   37       -3.392184e+00
   38        1.078440e+00
   39       -2.714643e+00
   40       -5.978498e-01
   41        1.019213e+00
   42       -1.485565e+00
   43        9.306888e-01
   44        1.204335e+00
   45        1.541309e-02
   46        1.403307e+00
   47       -8.320883e-01
   48        1.924908e+00
   49       -1.594552e+00
   50       -4.312331e-01
   51       -1.830077e+00
   52       -1.087360e+00
   53        2.036578e+00
   54        9.796025e-01
   55       -3.360890e-01
   56       -1.831382e+00
   57       -4.192810e+00
   58       -1.974154e+00
   59       -7.470871e-02
   60       -2.018231e+00
   61       -2.270204e-01
   62       -2.611010e+00
   63       -2.164290e-01
   64        6.535305e-01
   65        1.350553e+00
   66       -6.917747e-01
   67        8.182495e-01
   68       -5.774000e-01
   69        4.598337e-01
   70       -2.214632e+00
   71        3.391936e+00
   72        1.924946e+00
   73       -5.764405e-01
   74       -3.267790e+00
   75       -4.207857e-03
   76       -1.254500e+00
   77        1.192141e+00
   78        4.901162e-01
   79       -4.918429e-01
   80       -8.126998e-01
   81        1.113936e+00
   82       -4.793423e-01
   83       -7.396254e-01
   84        1.431386e-01
   85        3.481354e+00
   86       -1.700870e+00
   87        7.821561e-01
   88       -9.195531e-01
   89        5.387032e+00
   90        2.210538e+00
   91       -2.217746e+00
   92        1.744058e+00
   93       -4.697969e-01
   94       -1.198352e+00
   95       -1.598067e+00
   96        4.625315e+00
   97        3.758514e+00
   98       -4.610863e-01
   99       -1.326660e+00
  100        2.884797e-01
;
param outliervec:=
    1    1
    2    0
    3    0
    4    0
    5    0
    6    0
    7    0
    8    0
    9    0
   10    0
   11    0
   12    0
   13    0
   14    0
   15    1
   16    0
   17    0
   18    0
   19    0
   20    0
   21    0
   22    0
   23    0
   24    1
   25    0
   26    0
   27    0
   28    0
   29    0
   30    1
   31    0
   32    0
   33    0
   34    1
   35    0
   36    1
   37    0
   38    0
   39    0
   40    0
   41    0
   42    0
   43    0
   44    0
   45    0
   46    0
   47    0
   48    0
   49    0
   50    0
   51    0
   52    0
   53    0
   54    0
   55    0
   56    0
   57    0
   58    0
   59    0
   60    0
   61    0
   62    0
   63    0
   64    0
   65    0
   66    0
   67    0
   68    0
   69    0
   70    0
   71    0
   72    0
   73    1
   74    0
   75    0
   76    0
   77    0
   78    0
   79    0
   80    1
   81    0
   82    0
   83    0
   84    0
   85    0
   86    1
   87    0
   88    0
   89    0
   90    0
   91    0
   92    0
   93    0
   94    0
   95    0
   96    0
   97    0
   98    1
   99    0
  100    0
;